(declare-sort Loc 0)
(declare-const f2204_0_move_FieldAccess Loc)
(declare-const f2208_0_move_FieldAccess Loc)
(declare-const f1_0_main_Load Loc)
(declare-const f1077_0_random_GT Loc)
(declare-const f121_0_createList_Return Loc)
(declare-const f1094_0_main_InvokeMethod Loc)
(declare-const f1241_0_random_GT Loc)
(declare-const f1392_0_get_LE Loc)
(declare-const f2141_0_move_NE Loc)
(declare-const f1415_0_main_InvokeMethod Loc)
(declare-const f1451_0_random_GT Loc)
(declare-const f1485_0_main_InvokeMethod Loc)
(declare-const f1353_0_createList_GE Loc)
(declare-const f1759_0_createList_NULL Loc)
(declare-const f844_0_getFirst_NONNULL Loc)
(declare-const f2182_0_move_FieldAccess Loc)
(declare-const f2183_0_move_FieldAccess Loc)
(declare-const f2205_0_move_FieldAccess Loc)
(declare-const f2312_0_move_InvokeMethod Loc)
(declare-const __init Loc)
(assert (distinct f2204_0_move_FieldAccess f2208_0_move_FieldAccess f1_0_main_Load f1077_0_random_GT f121_0_createList_Return f1094_0_main_InvokeMethod f1241_0_random_GT f1392_0_get_LE f2141_0_move_NE f1415_0_main_InvokeMethod f1451_0_random_GT f1485_0_main_InvokeMethod f1353_0_createList_GE f1759_0_createList_NULL f844_0_getFirst_NONNULL f2182_0_move_FieldAccess f2183_0_move_FieldAccess f2205_0_move_FieldAccess f2312_0_move_InvokeMethod __init ))

(define-fun cfg_init ( (pc Loc) (src Loc) (rel Bool) ) Bool
  (and (= pc src) rel))

(define-fun cfg_trans2 ( (pc Loc) (src Loc)
                         (pc1 Loc) (dst Loc)
                         (rel Bool) ) Bool
  (and (= pc src) (= pc1 dst) rel))

(define-fun cfg_trans3 ( (pc Loc) (exit Loc)
                         (pc1 Loc) (call Loc)
                         (pc2 Loc) (return Loc)
                         (rel Bool) ) Bool
  (and (= pc exit) (= pc1 call) (= pc2 return) rel))

(define-fun init_main ( (pc Loc) (arg1 Int) (arg2 Int) (arg3 Int) (arg4 Int) (arg5 Int) (arg6 Int) (arg7 Int) (arg8 Int) (arg9 Int) ) Bool
  (cfg_init pc __init true))

(define-fun next_main (
                 (pc Loc) (arg1 Int) (arg2 Int) (arg3 Int) (arg4 Int) (arg5 Int) (arg6 Int) (arg7 Int) (arg8 Int) (arg9 Int)
                 (pc1 Loc) (arg1P Int) (arg2P Int) (arg3P Int) (arg4P Int) (arg5P Int) (arg6P Int) (arg7P Int) (arg8P Int) (arg9P Int)
             ) Bool
  (or
    (cfg_trans2 pc f2204_0_move_FieldAccess pc1 f2208_0_move_FieldAccess (and (and (and (and (and (and (and (and (and (and (and (and (and (and (and (and (<= arg1P arg1) (<= arg3P arg3)) (<= arg4P arg4)) (> arg1 4)) (> arg3 0)) (> arg4 2)) (> arg1P 4)) (> arg3P 0)) (> arg4P 2)) (<= (+ arg6P 4) arg1)) (<= (+ arg6 4) arg1)) (>= arg3 (+ arg8P 2))) (<= (+ arg7 2) arg4)) (= arg2 arg2P)) (= arg5 arg5P)) (= arg6 arg7P)) (= arg7 arg9P)))
    (cfg_trans2 pc f1_0_main_Load pc1 f1077_0_random_GT (and (and (and (and (<= arg1P arg1) (> arg2 (- 1))) (> arg1 0)) (> arg1P 0)) (> arg2P (- 1))))
    (cfg_trans2 pc f121_0_createList_Return pc1 f1077_0_random_GT (exists ((x17 Int)) (and (and (and (and (and (<= arg1P arg1) (> x17 (- 1))) (<= (+ arg2P 1) arg1)) (> arg1 0)) (> arg1P 0)) (> arg2P (- 1)))))
    (cfg_trans2 pc f1077_0_random_GT pc1 f1094_0_main_InvokeMethod (exists ((x22 Int)) (and (and (and (and (and (and (and (<= arg1P arg1) (>= arg3P x22)) (<= (- arg1P 1) arg2)) (<= arg2P arg2)) (> arg1 0)) (> arg2 (- 1))) (> arg1P 0)) (> arg2P (- 1)))))
    (cfg_trans2 pc f1077_0_random_GT pc1 f1094_0_main_InvokeMethod (exists ((x29 Int) (x28 Int)) (and (and (and (and (and (and (and (and (and (< x29 x28) (> x29 (- 1))) (<= arg1P arg1)) (<= (- arg1P 1) arg2)) (<= arg2P arg2)) (> arg1 0)) (> arg2 (- 1))) (> arg1P 0)) (> arg2P (- 1))) (= (+ x29 1) arg3P))))
    (cfg_trans2 pc f1094_0_main_InvokeMethod pc1 f1241_0_random_GT (exists ((x34 Int)) (and (and (and (and (and (and (and (>= arg3 x34) (> x34 (- 1))) (<= arg1P arg1)) (<= arg1P arg2)) (> arg1 0)) (> arg2 0)) (> arg1P 0)) (> arg2P 1))))
    (cfg_trans2 pc f1077_0_random_GT pc1 f1392_0_get_LE (exists ((x42 Int) (x41 Int)) (and (and (and (and (and (and (and (and (and (and (and (< x42 x41) (> x42 (- 1))) (> x41 0)) (> arg3P (- 1))) (<= (+ x42 1) x41)) (<= arg1P arg1)) (<= arg1P arg2)) (> arg1 0)) (> arg2 0)) (> arg1P 0)) (> arg2P 1)) (= (+ x42 1) arg4P))))
    (cfg_trans2 pc f1241_0_random_GT pc1 f2141_0_move_NE (exists ((x49 Int) (x48 Int)) (and (and (and (and (and (and (<= arg1P arg2) (>= x49 x48)) (> arg1 0)) (> arg2 1)) (> arg1P 1)) (<= (+ arg3 2) arg2)) (= 0 arg2P))))
    (cfg_trans2 pc f1241_0_random_GT pc1 f1415_0_main_InvokeMethod (exists ((x55 Int) (x54 Int)) (and (and (and (and (and (and (and (and (and (and (and (and (< x55 x54) (> x55 (- 1))) (<= arg1P arg1)) (<= (+ arg1P 1) arg2)) (<= arg2P arg2)) (> arg1 0)) (> arg2 1)) (> arg1P 0)) (> arg2P 1)) (<= (+ arg3 2) arg2)) (= 0 arg3P)) (= (+ x55 1) arg4P)) (= arg3 arg5P))))
    (cfg_trans2 pc f1241_0_random_GT pc1 f1415_0_main_InvokeMethod (exists ((x62 Int) (x61 Int)) (and (and (and (and (and (and (and (and (and (and (and (and (< x62 x61) (> x62 (- 1))) (> arg3P (- 1))) (<= arg1P arg1)) (<= (+ arg1P 1) arg2)) (<= arg2P arg2)) (> arg1 0)) (> arg2 1)) (> arg1P 0)) (> arg2P 1)) (<= (+ arg3 2) arg2)) (= (+ x62 1) arg4P)) (= arg3 arg5P))))
    (cfg_trans2 pc f1392_0_get_LE pc1 f1451_0_random_GT (exists ((x69 Int)) (and (and (and (and (and (and (and (and (<= arg1P arg1) (> x69 (- 1))) (<= (- arg1P 1) arg2)) (<= arg2P arg2)) (> arg1 0)) (> arg2 (- 1))) (> arg1P 0)) (> arg2P (- 1))) (= 0 arg3))))
    (cfg_trans2 pc f1415_0_main_InvokeMethod pc1 f2141_0_move_NE (exists ((x75 Int)) (and (and (and (and (and (and (and (and (<= arg4 x75) (> x75 0)) (> arg4 0)) (<= arg1P arg2)) (> arg1 0)) (> arg2 1)) (> arg1P 1)) (<= (+ arg5 2) arg2)) (= arg3 arg2P))))
    (cfg_trans2 pc f1392_0_get_LE pc1 f1392_0_get_LE (and (and (and (and (and (and (and (and (<= arg1P arg1) (> arg3 0)) (<= arg1P arg2)) (> arg1 0)) (> arg2 0)) (> arg1P 0)) (> arg2P (- 1))) (= arg3 arg3P)) (= arg4 arg4P)))
    (cfg_trans2 pc f1451_0_random_GT pc1 f1485_0_main_InvokeMethod (exists ((x89 Int)) (and (and (and (and (and (and (and (<= arg1P arg1) (>= arg3P x89)) (<= (- arg1P 1) arg2)) (<= arg2P arg2)) (> arg1 0)) (> arg2 (- 1))) (> arg1P 0)) (> arg2P (- 1)))))
    (cfg_trans2 pc f1392_0_get_LE pc1 f1451_0_random_GT (exists ((x95 Int)) (and (and (and (and (and (and (and (and (and (> x95 (- 1)) (> arg3 0)) (>= arg1 arg1P)) (>= arg2 (- arg1P 1))) (>= arg1 (+ arg2P 1))) (>= arg2 arg2P)) (> arg1 0)) (> arg2 (- 1))) (> arg1P 0)) (> arg2P (- 1)))))
    (cfg_trans2 pc f1485_0_main_InvokeMethod pc1 f2141_0_move_NE (exists ((x102 Int)) (and (and (and (and (and (and (and (>= arg3 x102) (> x102 0)) (> arg3 0)) (<= arg1P arg2)) (> arg1 0)) (> arg2 0)) (> arg1P 0)) (= 0 arg2P))))
    (cfg_trans2 pc f1451_0_random_GT pc1 f1485_0_main_InvokeMethod (exists ((x108 Int) (x107 Int)) (and (and (and (and (and (and (and (and (and (< x108 x107) (> x108 0)) (<= arg1P arg1)) (<= (- arg1P 1) arg2)) (<= arg2P arg2)) (> arg1 0)) (> arg2 (- 1))) (> arg1P 0)) (> arg2P (- 1))) (= (+ x108 1) arg3P))))
    (cfg_trans2 pc f1451_0_random_GT pc1 f2141_0_move_NE (exists ((x114 Int) (x113 Int)) (and (and (and (and (and (and (and (and (< x114 x113) (> x114 0)) (> x113 1)) (> arg2P (- 1))) (<= (+ x114 1) x113)) (<= arg1P arg2)) (> arg1 0)) (> arg2 0)) (> arg1P 0))))
    (cfg_trans2 pc f1_0_main_Load pc1 f1353_0_createList_GE (and (and (and (and (and (and (and (<= (+ arg1P 1) arg1) (> arg1 0)) (> arg1P (- 1))) (= 0 arg2)) (= 0 arg2P)) (= 0 arg3P)) (= 0 arg4P)) (= 0 arg5P)))
    (cfg_trans2 pc f1_0_main_Load pc1 f1353_0_createList_GE (and (and (and (and (and (and (and (<= (+ arg1P 1) arg1) (> arg2 0)) (> arg1 0)) (> arg1P (- 1))) (= 0 arg2P)) (= 0 arg3P)) (= arg2 arg4P)) (= 1 arg5P)))
    (cfg_trans2 pc f1_0_main_Load pc1 f1353_0_createList_GE (and (and (and (and (and (and (and (> arg3P (- 1)) (> arg2 0)) (<= (+ arg1P 1) arg1)) (> arg1 0)) (> arg1P (- 1))) (= 0 arg2P)) (= arg2 arg4P)) (= 1 arg5P)))
    (cfg_trans2 pc f1353_0_createList_GE pc1 f1353_0_createList_GE (and (and (and (and (and (and (and (and (and (>= arg5 arg4) (> arg4 (- 1))) (> arg3 arg2)) (<= (- arg1P 2) arg1)) (> arg1 (- 1))) (> arg1P 1)) (= (+ arg2 1) arg2P)) (= arg3 arg3P)) (= arg4 arg4P)) (= arg5 arg5P)))
    (cfg_trans2 pc f1353_0_createList_GE pc1 f1353_0_createList_GE (and (and (and (and (and (and (and (and (>= arg5 arg4) (> arg4 (- 1))) (> arg3 arg2)) (> arg1 0)) (> arg1P 4)) (= (+ arg2 1) arg2P)) (= arg3 arg3P)) (= arg4 arg4P)) (= arg5 arg5P)))
    (cfg_trans2 pc f1353_0_createList_GE pc1 f1759_0_createList_NULL (and (and (and (and (and (and (and (and (and (and (and (> arg3 arg2) (> arg4 (- 1))) (< arg5 arg4)) (> arg5 (- 1))) (<= arg4P arg1)) (> arg1 (- 1))) (> arg2P 1)) (> arg4P (- 1))) (= arg3 arg1P)) (= arg2 arg3P)) (= arg4 arg5P)) (= (+ arg5 1) arg6P)))
    (cfg_trans2 pc f1353_0_createList_GE pc1 f1759_0_createList_NULL (exists ((x154 Int)) (and (and (and (and (and (and (and (and (and (and (and (and (> arg3 arg2) (> arg4 (- 1))) (< arg5 arg4)) (> arg5 (- 1))) (> x154 (- 1))) (<= arg4P arg1)) (> arg1 (- 1))) (> arg2P 1)) (> arg4P (- 1))) (= arg3 arg1P)) (= arg2 arg3P)) (= arg4 arg5P)) (= (+ arg5 1) arg6P))))
    (cfg_trans2 pc f1759_0_createList_NULL pc1 f1353_0_createList_GE (and (and (and (and (and (and (and (and (<= arg1P arg2) (<= (- arg1P 2) arg4)) (> arg2 1)) (> arg4 (- 1))) (> arg1P 1)) (= (+ arg3 1) arg2P)) (= arg1 arg3P)) (= arg5 arg4P)) (= arg6 arg5P)))
    (cfg_trans2 pc f1759_0_createList_NULL pc1 f1353_0_createList_GE (and (and (and (and (and (and (> arg2 2) (> arg4 0)) (> arg1P 4)) (= (+ arg3 1) arg2P)) (= arg1 arg3P)) (= arg5 arg4P)) (= arg6 arg5P)))
    (cfg_trans2 pc f1094_0_main_InvokeMethod pc1 f844_0_getFirst_NONNULL (exists ((x169 Int)) (and (and (and (and (and (and (<= arg1P arg2) (>= arg3 x169)) (> arg1 0)) (> arg2 0)) (> arg1P 0)) (> arg2P (- 1))) (<= (+ arg3P 2) arg2))))
    (cfg_trans2 pc f1077_0_random_GT pc1 f844_0_getFirst_NONNULL (exists ((x177 Int) (x176 Int) (x183 Int)) (and (and (and (and (and (and (and (and (and (and (< x177 x176) (> x177 (- 1))) (> x176 0)) (> x183 (- 1))) (<= (+ x177 1) x176)) (<= arg1P arg2)) (> arg1 0)) (> arg2 0)) (> arg1P 0)) (> arg2P (- 1))) (<= (+ arg3P 2) arg2))))
    (cfg_trans2 pc f844_0_getFirst_NONNULL pc1 f844_0_getFirst_NONNULL (and (and (and (and (> arg1 2) (> arg2 0)) (> arg1P 0)) (> arg2P (- 1))) (<= (+ arg3 2) arg1)))
    (cfg_trans2 pc f2141_0_move_NE pc1 f2182_0_move_FieldAccess (and (and (and (and (and (and (<= arg1P arg1) (> arg2 0)) (> arg1 2)) (> arg1P 2)) (> arg3P 0)) (<= (+ arg5P 3) arg1)) (= arg2 arg2P)))
    (cfg_trans2 pc f2141_0_move_NE pc1 f2183_0_move_FieldAccess (and (and (and (and (and (<= arg1P arg1) (> arg2 0)) (> arg1 2)) (> arg1P 2)) (> arg3P 0)) (= arg2 arg2P)))
    (cfg_trans2 pc f2182_0_move_FieldAccess pc1 f2204_0_move_FieldAccess (and (and (and (and (and (and (and (> arg1 2) (> arg3 0)) (> arg1P 4)) (> arg3P 0)) (> arg4P 2)) (<= (+ arg5 3) arg1)) (= arg2 arg2P)) (= arg4 arg5P)))
    (cfg_trans2 pc f2182_0_move_FieldAccess pc1 f2205_0_move_FieldAccess (and (and (and (and (and (and (and (> arg1 2) (> arg3 2)) (> arg2P 0)) (> arg3P 2)) (<= (+ arg5 3) arg1)) (<= (+ arg5 3) arg3)) (= arg2 arg1P)) (= arg4 arg4P)))
    (cfg_trans2 pc f2183_0_move_FieldAccess pc1 f2141_0_move_NE (and (and (and (and (and (> arg2 0) (< (- arg2 1) arg2)) (> arg1 2)) (> arg3 0)) (> arg1P 4)) (= (- arg2 1) arg2P)))
    (cfg_trans2 pc f2183_0_move_FieldAccess pc1 f2312_0_move_InvokeMethod (and (and (and (and (and (> arg1 2) (> arg2 0)) (> arg3 2)) (= arg2 arg1P)) (= (- arg2 1) arg2P)) (= arg4 arg3P)))
    (cfg_trans2 pc f2204_0_move_FieldAccess pc1 f2312_0_move_InvokeMethod (and (and (and (and (and (and (and (and (and (> arg1 4) (> arg2 0)) (> arg3 4)) (> arg4 4)) (<= (+ arg6 4) arg1)) (<= (+ arg6 4) arg3)) (<= (+ arg7 2) arg4)) (= arg2 arg1P)) (= (- arg2 1) arg2P)) (= arg5 arg3P)))
    (cfg_trans2 pc f2205_0_move_FieldAccess pc1 f2312_0_move_InvokeMethod (and (and (and (and (and (> arg2 2) (> arg1 0)) (> arg3 2)) (= arg1 arg1P)) (= (- arg1 1) arg2P)) (= arg4 arg3P)))
    (cfg_trans2 pc f2205_0_move_FieldAccess pc1 f2141_0_move_NE (and (and (and (and (and (> arg1 0) (< (- arg1 1) arg1)) (> arg2 0)) (> arg3 2)) (> arg1P 4)) (= (- arg1 1) arg2P)))
    (cfg_trans2 pc f2208_0_move_FieldAccess pc1 f2141_0_move_NE (and (and (and (and (and (and (and (and (and (and (and (and (and (and (> arg2 0) (< (- arg2 1) arg2)) (<= arg1P arg1)) (<= (- arg1P 2) arg3)) (<= (- arg1P 2) arg4)) (> arg1 4)) (> arg3 2)) (> arg4 2)) (> arg1P 4)) (<= (+ arg6 4) arg1)) (<= (+ arg8 2) arg3)) (<= (+ arg8 2) arg4)) (= arg6 arg7)) (= arg8 arg9)) (= (- arg2 1) arg2P)))
    (cfg_trans2 pc f2312_0_move_InvokeMethod pc1 f2141_0_move_NE (and (and (and (< arg2 arg1) (> arg1P 2)) (> arg1 0)) (= arg2 arg2P)))
    (cfg_trans2 pc f2208_0_move_FieldAccess pc1 f2141_0_move_NE (and (and (and (and (and (and (and (and (and (and (< (- arg2 1) arg2) (> arg2 0)) (> arg1 4)) (> arg3 0)) (> arg4 2)) (> arg1P 4)) (<= (+ arg6 4) arg1)) (<= (+ arg7 4) arg1)) (<= (+ arg8 2) arg3)) (<= (+ arg9 2) arg4)) (= (- arg2 1) arg2P)))
    (cfg_trans2 pc __init pc1 f1_0_main_Load true)
  )
)
